InboundTrucks  = 10;
OutboundTrucks = 10;
InboundDoors   = 4;
OutboundDoors  = 4;
ReleaseTime    = [17,72,108,102,97,8,32,15,63,97];
UnloadTime     = [35,11,34,34,16,12,27,22,35,15];
LoadTime       = [18,16,17,11,6,5,20,11,9,5];
TransferTime   = [| 3,0,0,2,0,0,1,0,0,4 | 0,1,0,0,2,0,0,0,0,0 | 0,10,3,0,0,4,5,0,1,0 | 2,0,0,0,0,0,1,0,0,3 | 0,3,0,0,2,0,0,1,0,0 | 0,0,1,0,0,3,0,0,0,6 | 1,0,0,2,0,0,0,0,0,4 | 0,5,0,0,1,0,6,0,0,0 | 7,0,5,0,0,1,0,0,1,0 | 0,6,0,0,0,0,0,0,0,3 |];
